10  5
 0  6  3  5  2  9  1  5  4 12   3 179  10
 1  6  3  6  2 12  0  9  4 11   7 179   5
 1  6  3  9  2 14  0  5  4 10   8 177   5
 3 10  0  4  2 13  1  9  4  8   4 170   5
 1 11  3 10  2 13  0 10  4 13  16 173   5
 3  5  1  6  2 12  0  6  4 15  16 176   5
 1  9  0  9  2 12  3  8  4  8  14 179  10
 1 11  3  3  2 15  0 10  4 11   1 174  10
 1  7  3  6  2 12  0  7  4 10  16 175   5
 0 10  1  8  2 13  3  3  4 15  15 167   5
